36
75
52	2
51	2
50	2
49	2
48	1
47	5
46	3
45	5
44	3
43	3
42	3
41	1
40	2
39	4
38	3
37	2
36	4
35	4
34	2
33	5
32	2
31	3
30	1
29	3
28	1
27	4
25	3
24	1
23	2
22	3
21	3
20	2
19	5
18	6
16	2
15	1
